Set parameter TokenServer to value "hpc-licenses.hpcc.usc.edu"
Set parameter TimeLimit to value 3600
Gurobi Optimizer version 9.5.1 build v9.5.1rc2 (linux64)
Thread count: 20 physical cores, 20 logical processors, using up to 20 threads
Optimize a model with 6007 rows, 4529 columns and 24534 nonzeros
Model fingerprint: 0xb4d2631b
Variable types: 4506 continuous, 23 integer (23 binary)
Coefficient statistics:
  Matrix range     [1e+00, 1e+00]
  Objective range  [2e-03, 2e+00]
  Bounds range     [1e+00, 1e+00]
  RHS range        [1e+00, 2e+02]
Presolve removed 1520 rows and 1515 columns
Presolve time: 0.05s
Presolved: 4487 rows, 3014 columns, 21975 nonzeros
Variable types: 2994 continuous, 20 integer (20 binary)
Found heuristic solution: objective 277.6005808

Root relaxation: objective 2.913746e+02, 2977 iterations, 0.07 seconds (0.11 work units)

    Nodes    |    Current Node    |     Objective Bounds      |     Work
 Expl Unexpl |  Obj  Depth IntInf | Incumbent    BestBd   Gap | It/Node Time

     0     0  291.37456    0    2  277.60058  291.37456  4.96%     -    0s
     0     0  291.20789    0    2  277.60058  291.20789  4.90%     -    0s
H    0     0                     277.9335813  291.20789  4.78%     -    0s
     0     0  290.95503    0    2  277.93358  290.95503  4.69%     -    0s
     0     0  290.43368    0    2  277.93358  290.43368  4.50%     -    0s
     0     0  289.64684    0    3  277.93358  289.64684  4.21%     -    0s
     0     0  289.26949    0    3  277.93358  289.26949  4.08%     -    0s
     0     0  288.22729    0    3  277.93358  288.22729  3.70%     -    0s
     0     0  288.22729    0    3  277.93358  288.22729  3.70%     -    0s
     0     0  288.22729    0    4  277.93358  288.22729  3.70%     -    0s
H    0     0                     287.6979903  288.22729  0.18%     -    0s
     0     0  288.22693    0    4  287.69799  288.22693  0.18%     -    0s
     0     0  288.22693    0    4  287.69799  288.22693  0.18%     -    0s
     0     0  288.22693    0    4  287.69799  288.22693  0.18%     -    0s
     0     0  288.22693    0    4  287.69799  288.22693  0.18%     -    0s
     0     0  287.95345    0    4  287.69799  287.95345  0.09%     -    0s
H    0     0                     287.7241250  287.95345  0.08%     -    0s
     0     0  287.95294    0    4  287.72412  287.95294  0.08%     -    0s
     0     0  287.95294    0    4  287.72412  287.95294  0.08%     -    0s
     0     0  287.95294    0    4  287.72412  287.95294  0.08%     -    0s
     0     0  287.88186    0    2  287.72412  287.88186  0.05%     -    0s

Cutting planes:
  Gomory: 3
  MIR: 431
  Flow cover: 15
  RLT: 8
  Relax-and-lift: 5

Explored 1 nodes (5138 simplex iterations) in 0.84 seconds (0.78 work units)
Thread count was 20 (of 20 available processors)

Solution count 4: 287.724 287.698 277.934 277.601 

Optimal solution found (tolerance 1.00e-04)
Best objective 2.877241249641e+02, best bound 2.877241249641e+02, gap 0.0000%



#########node  1
V1.7
#########node  2
0.0,1.0
#########node  3
1.0,0.0


Total Solving Time 1.1970422267913818
obj value 287.7241249640914
Policy Regret train (Sum) 2.0340319405192426
Best Treatment Found train (%) 82.8
treatment classification acc train (%) 23.200000000000003
Policy Regret test (Sum) 23.056351074388168
Best Treatment Found test (%) 86.09
treatment classification acc test (%) 26.06
